\ENCODING=ISO-8859-1
\Problem name: IloCplex

Maximize
 obj: 1003 vnp2 - 18 (π,ρ)0↑e7 - 83 (π,ρ)1↑e8
      - 100 (π,ρ)2↑e8 - 83 (π,ρ)3↑e8
      - 94 (π,ρ)4↑e8 - 78 (π,ρ)5↑e8
      - 78 (π,ρ)6↑e8 - 102 (π,ρ)7↑e8
      - 80 (π,ρ)8↑e8 - 110 (π,ρ)9↑e8
      - 74 (π,ρ)10↑e8 - 85 (π,ρ)11↑e8
      - 109 (π,ρ)12↑e8 - 129 (π,ρ)13↑e8
      - 127 (π,ρ)14↑e8 - 129 (π,ρ)15↑e8
      - 167 (π,ρ)16↑e9 - 119 (π,ρ)17↑e9
      - 115 (π,ρ)18↑e9 - 132 (π,ρ)19↑e9
      - 122 (π,ρ)20↑e9 - 88 (π,ρ)21↑e9
      - 102 (π,ρ)22↑e9 - 98 (π,ρ)23↑e9
      - 103 (π,ρ)24↑e9 - 232 (π,ρ)25↑e9
      - 307 (π,ρ)26↑e9 - 195 (π,ρ)27↑e9
      - 98 (π,ρ)28↑e9 - 103 (π,ρ)29↑e9
      - 90 (π,ρ)30↑e9 - 96 (π,ρ)31↑e10
      - 70 (π,ρ)32↑e10 - 62 (π,ρ)33↑e10
      - 122 (π,ρ)34↑e10 - 148 (π,ρ)35↑e10
      - 98 (π,ρ)36↑e10 - 108 (π,ρ)37↑e10
      - 121 (π,ρ)38↑e10 - 108 (π,ρ)39↑e10
      - 132 (π,ρ)40↑e10 - 106 (π,ρ)41↑e10
      - 106 (π,ρ)42↑e10 - 96 (π,ρ)43↑e10
      - 76 (π,ρ)44↑e10 - 129 (π,ρ)45↑e10
      - 30 (π,ρ)46↑e11
Subject To
 _EmbdConstr_vnp2e7#0:   vnp2 - (π,ρ)0↑e7  = 0
 _EmbdConstr_vnp2e8#1:   vnp2 - (π,ρ)1↑e8 - (π,ρ)2↑e8
                         - (π,ρ)3↑e8 - (π,ρ)4↑e8
                         - (π,ρ)5↑e8 - (π,ρ)6↑e8
                         - (π,ρ)7↑e8 - (π,ρ)8↑e8
                         - (π,ρ)9↑e8 - (π,ρ)10↑e8
                         - (π,ρ)11↑e8 - (π,ρ)12↑e8
                         - (π,ρ)13↑e8 - (π,ρ)14↑e8
                         - (π,ρ)15↑e8  = 0
 _EmbdConstr_vnp2e9#2:   vnp2 - (π,ρ)16↑e9 - (π,ρ)17↑e9
                         - (π,ρ)18↑e9 - (π,ρ)19↑e9
                         - (π,ρ)20↑e9 - (π,ρ)21↑e9
                         - (π,ρ)22↑e9 - (π,ρ)23↑e9
                         - (π,ρ)24↑e9 - (π,ρ)25↑e9
                         - (π,ρ)26↑e9 - (π,ρ)27↑e9
                         - (π,ρ)28↑e9 - (π,ρ)29↑e9
                         - (π,ρ)30↑e9  = 0
 _EmbdConstr_vnp2e10#3:  vnp2 - (π,ρ)31↑e10 - (π,ρ)32↑e10
                         - (π,ρ)33↑e10 - (π,ρ)34↑e10
                         - (π,ρ)35↑e10 - (π,ρ)36↑e10
                         - (π,ρ)37↑e10 - (π,ρ)38↑e10
                         - (π,ρ)39↑e10 - (π,ρ)40↑e10
                         - (π,ρ)41↑e10 - (π,ρ)42↑e10
                         - (π,ρ)43↑e10 - (π,ρ)44↑e10
                         - (π,ρ)45↑e10  = 0
 _EmbdConstr_vnp2e11#4:  vnp2 - (π,ρ)46↑e11  = 0
 BwCapConstr_slink6#5:   2 (π,ρ)20↑e9 <= 11
 BwCapConstr_slink9#6:   <= 13
 BwCapConstr_slink10#7:  <= 9
 BwCapConstr_slink11#8:  <= 11
 BwCapConstr_slink12#9:  2 (π,ρ)17↑e9 + 2 (π,ρ)20↑e9
                         + (π,ρ)24↑e9 + (π,ρ)29↑e9 <= 5
 BwCapConstr_slink13#10: <= 2
 BwCapConstr_slink14#11: (π,ρ)21↑e9 + 5 (π,ρ)25↑e9
                         + 5 (π,ρ)26↑e9 + 5 (π,ρ)27↑e9
                         <= 5
 BwCapConstr_slink15#12: 5 (π,ρ)17↑e9 + 5 (π,ρ)20↑e9
                         + 5 (π,ρ)25↑e9 + 5 (π,ρ)26↑e9
                         + 5 (π,ρ)27↑e9 + 2 (π,ρ)33↑e10
                         <= 2
 BwCapConstr_slink16#13: 5 (π,ρ)16↑e9 + 5 (π,ρ)17↑e9
                         + 5 (π,ρ)18↑e9 + 5 (π,ρ)24↑e9
                         + 5 (π,ρ)29↑e9 + 2 (π,ρ)42↑e10
                         <= 1
 BwCapConstr_slink18#14: 5 (π,ρ)16↑e9 + 5 (π,ρ)19↑e9
                         + 5 (π,ρ)22↑e9 + 5 (π,ρ)23↑e9
                         + 5 (π,ρ)24↑e9 + 5 (π,ρ)25↑e9
                         + 2 (π,ρ)26↑e9 + 2 (π,ρ)38↑e10
                         + (π,ρ)45↑e10 <= 8
 BwCapConstr_slink19#15: 2 (π,ρ)10↑e8 + 2 (π,ρ)11↑e8
                         + 2 (π,ρ)12↑e8 + 4 (π,ρ)16↑e9
                         + 4 (π,ρ)19↑e9 + 5 (π,ρ)22↑e9
                         + 5 (π,ρ)23↑e9 + 5 (π,ρ)24↑e9
                         + 4 (π,ρ)25↑e9 + 5 (π,ρ)28↑e9
                         + 5 (π,ρ)29↑e9 + 5 (π,ρ)30↑e9
                         <= 11
 BwCapConstr_slink20#16: 5 (π,ρ)16↑e9 + 5 (π,ρ)17↑e9
                         + 5 (π,ρ)18↑e9 + 2 (π,ρ)21↑e9
                         + (π,ρ)23↑e9 + 5 (π,ρ)25↑e9
                         + 5 (π,ρ)26↑e9 + 5 (π,ρ)27↑e9
                         + (π,ρ)28↑e9 <= 4
 BwCapConstr_slink21#17: 2 (π,ρ)2↑e8 + 2 (π,ρ)4↑e8
                         + 2 (π,ρ)6↑e8 + 2 (π,ρ)7↑e8
                         + 5 (π,ρ)19↑e9 + 5 (π,ρ)20↑e9
                         + 5 (π,ρ)21↑e9 + 2 (π,ρ)22↑e9
                         + 3 (π,ρ)46↑e11 <= 6
 BwCapConstr_slink22#18: (π,ρ)1↑e8 + (π,ρ)3↑e8
                         + 2 (π,ρ)4↑e8 + 2 (π,ρ)5↑e8
                         + 2 (π,ρ)6↑e8 + 2 (π,ρ)7↑e8
                         + 2 (π,ρ)8↑e8 + 2 (π,ρ)9↑e8
                         + 2 (π,ρ)11↑e8 + 2 (π,ρ)12↑e8
                         + 2 (π,ρ)13↑e8 + 2 (π,ρ)14↑e8
                         + 2 (π,ρ)15↑e8 + (π,ρ)45↑e10
                         <= 4
 BwCapConstr_slink23#19: 2 (π,ρ)1↑e8 + 2 (π,ρ)2↑e8
                         + 2 (π,ρ)3↑e8 + 2 (π,ρ)5↑e8
                         + 2 (π,ρ)8↑e8 + 2 (π,ρ)9↑e8
                         + 2 (π,ρ)10↑e8 + 2 (π,ρ)13↑e8
                         + 2 (π,ρ)14↑e8 + 2 (π,ρ)15↑e8
                         + 4 (π,ρ)26↑e9 <= 6
 BwCapConstr_slink25#20: 2 (π,ρ)4↑e8 + 2 (π,ρ)5↑e8
                         + 2 (π,ρ)6↑e8 + 2 (π,ρ)14↑e8
                         <= 10
 BwCapConstr_slink26#21: 2 (π,ρ)7↑e8 + 2 (π,ρ)8↑e8
                         + 2 (π,ρ)9↑e8 + 2 (π,ρ)15↑e8
                         + 2 (π,ρ)45↑e10 <= 1
 BwCapConstr_slink27#22: <= 13
 BwCapConstr_slink28#23: 2 (π,ρ)1↑e8 + 2 (π,ρ)2↑e8
                         + 2 (π,ρ)3↑e8 + 2 (π,ρ)37↑e10
                         + 2 (π,ρ)38↑e10 + 2 (π,ρ)39↑e10
                         <= 15
 BwCapConstr_slink29#24: 2 (π,ρ)9↑e8 + 2 (π,ρ)40↑e10
                         + 2 (π,ρ)41↑e10 + 2 (π,ρ)42↑e10
                         <= 6
 BwCapConstr_slink30#25: 2 (π,ρ)13↑e8 + 2 (π,ρ)14↑e8
                         + 2 (π,ρ)15↑e8 + 2 (π,ρ)26↑e9
                         + 2 (π,ρ)37↑e10 + 2 (π,ρ)38↑e10
                         + 2 (π,ρ)39↑e10 + 2 (π,ρ)40↑e10
                         + 2 (π,ρ)41↑e10 + 2 (π,ρ)42↑e10
                         <= 8
 BwCapConstr_slink31#26: 2 (π,ρ)2↑e8 + 2 (π,ρ)4↑e8
                         + 2 (π,ρ)7↑e8 + 2 (π,ρ)10↑e8
                         + 2 (π,ρ)11↑e8 + 2 (π,ρ)12↑e8
                         + 2 (π,ρ)13↑e8 + 2 (π,ρ)14↑e8
                         + 2 (π,ρ)15↑e8 + 2 (π,ρ)31↑e10
                         + 2 (π,ρ)32↑e10 + 2 (π,ρ)33↑e10
                         + 2 (π,ρ)35↑e10 + 2 (π,ρ)43↑e10
                         + 2 (π,ρ)44↑e10 + 2 (π,ρ)45↑e10
                         <= 13
 BwCapConstr_slink32#27: 2 (π,ρ)10↑e8 + 2 (π,ρ)11↑e8
                         + 2 (π,ρ)12↑e8 + 5 (π,ρ)26↑e9
                         + 5 (π,ρ)28↑e9 + 5 (π,ρ)29↑e9
                         + 5 (π,ρ)30↑e9 + 3 (π,ρ)46↑e11
                         <= 17
 BwCapConstr_slink33#28: 3 (π,ρ)0↑e7 + 5 (π,ρ)19↑e9
                         + 5 (π,ρ)20↑e9 + 5 (π,ρ)21↑e9
                         + 5 (π,ρ)28↑e9 + 5 (π,ρ)29↑e9
                         + 5 (π,ρ)30↑e9 + 2 (π,ρ)31↑e10
                         + 2 (π,ρ)32↑e10 + 2 (π,ρ)33↑e10
                         + 2 (π,ρ)34↑e10 + 2 (π,ρ)35↑e10
                         + 2 (π,ρ)36↑e10 + 2 (π,ρ)37↑e10
                         + 2 (π,ρ)38↑e10 + 2 (π,ρ)39↑e10
                         + 2 (π,ρ)40↑e10 + 2 (π,ρ)41↑e10
                         + 2 (π,ρ)42↑e10 + 2 (π,ρ)43↑e10
                         + 2 (π,ρ)44↑e10 + 2 (π,ρ)45↑e10
                         <= 2
 BwCapConstr_slink34#29: 5 (π,ρ)18↑e9 + 2 (π,ρ)31↑e10
                         + 2 (π,ρ)32↑e10 + 2 (π,ρ)34↑e10
                         + 2 (π,ρ)35↑e10 + 2 (π,ρ)36↑e10
                         + 2 (π,ρ)37↑e10 + 2 (π,ρ)39↑e10
                         + 2 (π,ρ)40↑e10 + 2 (π,ρ)41↑e10
                         + 2 (π,ρ)43↑e10 <= 1
 BwCapConstr_slink35#30: <= 6
 BwCapConstr_slink36#31: 5 (π,ρ)27↑e9 + 2 (π,ρ)31↑e10
                         + 2 (π,ρ)34↑e10 + 2 (π,ρ)35↑e10
                         + 2 (π,ρ)36↑e10 + 2 (π,ρ)40↑e10
                         <= 11
 BwCapConstr_slink37#32: 2 (π,ρ)35↑e10 + 2 (π,ρ)43↑e10
                         + 2 (π,ρ)44↑e10 + 2 (π,ρ)45↑e10
                         <= 14
 BwCapConstr_slink38#33: 2 (π,ρ)1↑e8 + 2 (π,ρ)2↑e8
                         + 2 (π,ρ)3↑e8 + 2 (π,ρ)4↑e8
                         + 2 (π,ρ)5↑e8 + 2 (π,ρ)6↑e8
                         + (π,ρ)11↑e8 + (π,ρ)14↑e8
                         + (π,ρ)15↑e8 + (π,ρ)35↑e10
                         + (π,ρ)36↑e10 + 2 (π,ρ)37↑e10
                         + 2 (π,ρ)38↑e10 + 2 (π,ρ)39↑e10
                         + (π,ρ)42↑e10 + 2 (π,ρ)43↑e10
                         + 2 (π,ρ)44↑e10 + 2 (π,ρ)45↑e10
                         <= 19
 BwCapConstr_slink39#34: 2 (π,ρ)10↑e8 + 2 (π,ρ)11↑e8
                         + 2 (π,ρ)12↑e8 + 2 (π,ρ)13↑e8
                         + 2 (π,ρ)14↑e8 + 2 (π,ρ)15↑e8
                         + 2 (π,ρ)31↑e10 + 2 (π,ρ)32↑e10
                         + 2 (π,ρ)33↑e10 + 2 (π,ρ)34↑e10
                         + 2 (π,ρ)35↑e10 + 2 (π,ρ)36↑e10
                         + (π,ρ)38↑e10 + 2 (π,ρ)40↑e10
                         + 2 (π,ρ)41↑e10 + 2 (π,ρ)42↑e10
                         <= 15
 BwCapConstr_slink40#35: 2 (π,ρ)34↑e10 <= 8
 BwCapConstr_slink41#36: 2 (π,ρ)7↑e8 + 2 (π,ρ)8↑e8
                         + 2 (π,ρ)9↑e8 + (π,ρ)12↑e8
                         + (π,ρ)13↑e8 + (π,ρ)45↑e10 <= 14
 BwCapConstr_slink43#37: (π,ρ)34↑e10 <= 13
Bounds
 0 <= vnp2 <= 1
 0 <= (π,ρ)0↑e7 <= 1
 0 <= (π,ρ)1↑e8 <= 1
 0 <= (π,ρ)2↑e8 <= 1
 0 <= (π,ρ)3↑e8 <= 1
 0 <= (π,ρ)4↑e8 <= 1
 0 <= (π,ρ)5↑e8 <= 1
 0 <= (π,ρ)6↑e8 <= 1
 0 <= (π,ρ)7↑e8 <= 1
 0 <= (π,ρ)8↑e8 <= 1
 0 <= (π,ρ)9↑e8 <= 1
 0 <= (π,ρ)10↑e8 <= 1
 0 <= (π,ρ)11↑e8 <= 1
 0 <= (π,ρ)12↑e8 <= 1
 0 <= (π,ρ)13↑e8 <= 1
 0 <= (π,ρ)14↑e8 <= 1
 0 <= (π,ρ)15↑e8 <= 1
 0 <= (π,ρ)16↑e9 <= 1
 0 <= (π,ρ)17↑e9 <= 1
 0 <= (π,ρ)18↑e9 <= 1
 0 <= (π,ρ)19↑e9 <= 1
 0 <= (π,ρ)20↑e9 <= 1
 0 <= (π,ρ)21↑e9 <= 1
 0 <= (π,ρ)22↑e9 <= 1
 0 <= (π,ρ)23↑e9 <= 1
 0 <= (π,ρ)24↑e9 <= 1
 0 <= (π,ρ)25↑e9 <= 1
 0 <= (π,ρ)26↑e9 <= 1
 0 <= (π,ρ)27↑e9 <= 1
 0 <= (π,ρ)28↑e9 <= 1
 0 <= (π,ρ)29↑e9 <= 1
 0 <= (π,ρ)30↑e9 <= 1
 0 <= (π,ρ)31↑e10 <= 1
 0 <= (π,ρ)32↑e10 <= 1
 0 <= (π,ρ)33↑e10 <= 1
 0 <= (π,ρ)34↑e10 <= 1
 0 <= (π,ρ)35↑e10 <= 1
 0 <= (π,ρ)36↑e10 <= 1
 0 <= (π,ρ)37↑e10 <= 1
 0 <= (π,ρ)38↑e10 <= 1
 0 <= (π,ρ)39↑e10 <= 1
 0 <= (π,ρ)40↑e10 <= 1
 0 <= (π,ρ)41↑e10 <= 1
 0 <= (π,ρ)42↑e10 <= 1
 0 <= (π,ρ)43↑e10 <= 1
 0 <= (π,ρ)44↑e10 <= 1
 0 <= (π,ρ)45↑e10 <= 1
 0 <= (π,ρ)46↑e11 <= 1
Binaries
 vnp2  (π,ρ)0↑e7  (π,ρ)1↑e8  (π,ρ)2↑e8 
 (π,ρ)3↑e8  (π,ρ)4↑e8  (π,ρ)5↑e8 
 (π,ρ)6↑e8  (π,ρ)7↑e8  (π,ρ)8↑e8 
 (π,ρ)9↑e8  (π,ρ)10↑e8  (π,ρ)11↑e8 
 (π,ρ)12↑e8  (π,ρ)13↑e8  (π,ρ)14↑e8 
 (π,ρ)15↑e8  (π,ρ)16↑e9  (π,ρ)17↑e9 
 (π,ρ)18↑e9  (π,ρ)19↑e9  (π,ρ)20↑e9 
 (π,ρ)21↑e9  (π,ρ)22↑e9  (π,ρ)23↑e9 
 (π,ρ)24↑e9  (π,ρ)25↑e9  (π,ρ)26↑e9 
 (π,ρ)27↑e9  (π,ρ)28↑e9  (π,ρ)29↑e9 
 (π,ρ)30↑e9  (π,ρ)31↑e10  (π,ρ)32↑e10 
 (π,ρ)33↑e10  (π,ρ)34↑e10  (π,ρ)35↑e10 
 (π,ρ)36↑e10  (π,ρ)37↑e10  (π,ρ)38↑e10 
 (π,ρ)39↑e10  (π,ρ)40↑e10  (π,ρ)41↑e10 
 (π,ρ)42↑e10  (π,ρ)43↑e10  (π,ρ)44↑e10 
 (π,ρ)45↑e10  (π,ρ)46↑e11 
End
